db/inputs/15230326642731682976901080416014354.smt2
(set-logic QF_FP)
(declare-const x0 (_ FloatingPoint 11 53))
(declare-const x1 (_ FloatingPoint 11 53))
(declare-const x2 (_ FloatingPoint 11 53))
(declare-const x3 (_ FloatingPoint 11 53))
(declare-const x4 (_ FloatingPoint 11 53))
(declare-const x5 (_ FloatingPoint 11 53))
(declare-const x6 (_ FloatingPoint 11 53))
(declare-const x7 (_ FloatingPoint 11 53))
(declare-const x8 (_ FloatingPoint 11 53))
(declare-const x9 (_ FloatingPoint 11 53))
(declare-const x10 (_ FloatingPoint 11 53))
(declare-const x11 (_ FloatingPoint 11 53))
(declare-const x12 (_ FloatingPoint 11 53))
(declare-const x13 (_ FloatingPoint 11 53))
(declare-const x14 (_ FloatingPoint 11 53))
(declare-const x15 (_ FloatingPoint 11 53))
(declare-const x16 (_ FloatingPoint 11 53))
(declare-const x17 (_ FloatingPoint 11 53))
(declare-const x18 (_ FloatingPoint 11 53))
(declare-const x19 (_ FloatingPoint 11 53))
(declare-const x20 (_ FloatingPoint 11 53))
(declare-const x21 (_ FloatingPoint 11 53))
(declare-const x22 (_ FloatingPoint 11 53))
(assert (fp.geq (fp.div RNE (fp.sub RNE x3 x9) (fp.neg x7)) (fp.neg (fp.add RNE x11 x11))))
(assert (fp.geq (fp.add RNE (fp.div RNE x9 x16) (fp.div RNE x15 x5)) (fp.sub RNE (fp.add RNE x17 x6) (fp.add RNE x21 x8))))
(assert (fp.eq (fp.mul RNE (fp.neg x8) (fp.mul RNE x7 x10)) (fp.div RNE (fp.sub RNE x22 x21) (fp.div RNE x4 x14))))
(assert (fp.leq (fp.div RNE (fp.sub RNE x15 x0) (fp.mul RNE x22 x3)) (fp.sub RNE (fp.div RNE x2 x4) (fp.div RNE x22 x8))))
(assert (fp.geq (fp.div RNE (fp.neg x6) (fp.neg x20)) (fp.div RNE (fp.div RNE x10 x21) (fp.neg x14))))
(assert (fp.gt (fp.sub RNE (fp.mul RNE x15 x5) (fp.add RNE x19 x15)) (fp.neg (fp.div RNE x7 x18))))
(assert (fp.geq (fp.div RNE (fp.add RNE x22 x19) (fp.add RNE x6 x16)) (fp.sub RNE (fp.add RNE x13 x2) (fp.div RNE x8 x14))))
(assert (fp.leq (fp.sub RNE (fp.mul RNE x14 x1) (fp.sub RNE x4 x5)) (fp.mul RNE (fp.neg x21) (fp.div RNE x11 x16))))
(assert (fp.gt (fp.add RNE (fp.neg x0) (fp.mul RNE x6 x10)) (fp.sub RNE (fp.mul RNE x17 x22) (fp.add RNE x2 x0))))
(check-sat)
