db/data/15230326642731682976901080416014354.z3.out
-------------------
2500.094796625
